certificates/rado_a15_c54_N64.cnf
c Rad2 upper bound instance: x1 + 15*x2 - x3 = 54, interval [1,64]
p cnf 64 524
1 4 7 0
-1 -4 -7 0
1 5 22 0
-1 -5 -22 0
1 6 37 0
-1 -6 -37 0
1 7 52 0
-1 -7 -52 0
2 4 8 0
-2 -4 -8 0
2 5 23 0
-2 -5 -23 0
2 6 38 0
-2 -6 -38 0
2 7 53 0
-2 -7 -53 0
3 4 9 0
-3 -4 -9 0
3 5 24 0
-3 -5 -24 0
3 6 39 0
-3 -6 -39 0
3 7 54 0
-3 -7 -54 0
4 10 0
-4 -10 0
4 5 25 0
-4 -5 -25 0
4 6 40 0
-4 -6 -40 0
4 7 55 0
-4 -7 -55 0
4 5 11 0
-4 -5 -11 0
5 26 0
-5 -26 0
5 6 41 0
-5 -6 -41 0
5 7 56 0
-5 -7 -56 0
4 6 12 0
-4 -6 -12 0
5 6 27 0
-5 -6 -27 0
6 42 0
-6 -42 0
6 7 57 0
-6 -7 -57 0
4 7 13 0
-4 -7 -13 0
5 7 28 0
-5 -7 -28 0
6 7 43 0
-6 -7 -43 0
7 58 0
-7 -58 0
4 8 14 0
-4 -8 -14 0
5 8 29 0
-5 -8 -29 0
6 8 44 0
-6 -8 -44 0
7 8 59 0
-7 -8 -59 0
4 9 15 0
-4 -9 -15 0
5 9 30 0
-5 -9 -30 0
6 9 45 0
-6 -9 -45 0
7 9 60 0
-7 -9 -60 0
1 3 10 0
-1 -3 -10 0
4 10 16 0
-4 -10 -16 0
5 10 31 0
-5 -10 -31 0
6 10 46 0
-6 -10 -46 0
7 10 61 0
-7 -10 -61 0
2 3 11 0
-2 -3 -11 0
4 11 17 0
-4 -11 -17 0
5 11 32 0
-5 -11 -32 0
6 11 47 0
-6 -11 -47 0
7 11 62 0
-7 -11 -62 0
3 12 0
-3 -12 0
4 12 18 0
-4 -12 -18 0
5 12 33 0
-5 -12 -33 0
6 12 48 0
-6 -12 -48 0
7 12 63 0
-7 -12 -63 0
3 4 13 0
-3 -4 -13 0
4 13 19 0
-4 -13 -19 0
5 13 34 0
-5 -13 -34 0
6 13 49 0
-6 -13 -49 0
7 13 64 0
-7 -13 -64 0
3 5 14 0
-3 -5 -14 0
4 14 20 0
-4 -14 -20 0
5 14 35 0
-5 -14 -35 0
6 14 50 0
-6 -14 -50 0
3 6 15 0
-3 -6 -15 0
4 15 21 0
-4 -15 -21 0
5 15 36 0
-5 -15 -36 0
6 15 51 0
-6 -15 -51 0
3 7 16 0
-3 -7 -16 0
4 16 22 0
-4 -16 -22 0
5 16 37 0
-5 -16 -37 0
6 16 52 0
-6 -16 -52 0
3 8 17 0
-3 -8 -17 0
4 17 23 0
-4 -17 -23 0
5 17 38 0
-5 -17 -38 0
6 17 53 0
-6 -17 -53 0
3 9 18 0
-3 -9 -18 0
4 18 24 0
-4 -18 -24 0
5 18 39 0
-5 -18 -39 0
6 18 54 0
-6 -18 -54 0
3 10 19 0
-3 -10 -19 0
4 19 25 0
-4 -19 -25 0
5 19 40 0
-5 -19 -40 0
6 19 55 0
-6 -19 -55 0
3 11 20 0
-3 -11 -20 0
4 20 26 0
-4 -20 -26 0
5 20 41 0
-5 -20 -41 0
6 20 56 0
-6 -20 -56 0
3 12 21 0
-3 -12 -21 0
4 21 27 0
-4 -21 -27 0
5 21 42 0
-5 -21 -42 0
6 21 57 0
-6 -21 -57 0
3 13 22 0
-3 -13 -22 0
4 22 28 0
-4 -22 -28 0
5 22 43 0
-5 -22 -43 0
6 22 58 0
-6 -22 -58 0
3 14 23 0
-3 -14 -23 0
4 23 29 0
-4 -23 -29 0
5 23 44 0
-5 -23 -44 0
6 23 59 0
-6 -23 -59 0
3 15 24 0
-3 -15 -24 0
4 24 30 0
-4 -24 -30 0
5 24 45 0
-5 -24 -45 0
6 24 60 0
-6 -24 -60 0
1 2 25 0
-1 -2 -25 0
3 16 25 0
-3 -16 -25 0
4 25 31 0
-4 -25 -31 0
5 25 46 0
-5 -25 -46 0
6 25 61 0
-6 -25 -61 0
2 26 0
-2 -26 0
3 17 26 0
-3 -17 -26 0
4 26 32 0
-4 -26 -32 0
5 26 47 0
-5 -26 -47 0
6 26 62 0
-6 -26 -62 0
2 3 27 0
-2 -3 -27 0
3 18 27 0
-3 -18 -27 0
4 27 33 0
-4 -27 -33 0
5 27 48 0
-5 -27 -48 0
6 27 63 0
-6 -27 -63 0
2 4 28 0
-2 -4 -28 0
3 19 28 0
-3 -19 -28 0
4 28 34 0
-4 -28 -34 0
5 28 49 0
-5 -28 -49 0
6 28 64 0
-6 -28 -64 0
2 5 29 0
-2 -5 -29 0
3 20 29 0
-3 -20 -29 0
4 29 35 0
-4 -29 -35 0
5 29 50 0
-5 -29 -50 0
2 6 30 0
-2 -6 -30 0
3 21 30 0
-3 -21 -30 0
4 30 36 0
-4 -30 -36 0
5 30 51 0
-5 -30 -51 0
2 7 31 0
-2 -7 -31 0
3 22 31 0
-3 -22 -31 0
4 31 37 0
-4 -31 -37 0
5 31 52 0
-5 -31 -52 0
2 8 32 0
-2 -8 -32 0
3 23 32 0
-3 -23 -32 0
4 32 38 0
-4 -32 -38 0
5 32 53 0
-5 -32 -53 0
2 9 33 0
-2 -9 -33 0
3 24 33 0
-3 -24 -33 0
4 33 39 0
-4 -33 -39 0
5 33 54 0
-5 -33 -54 0
2 10 34 0
-2 -10 -34 0
3 25 34 0
-3 -25 -34 0
4 34 40 0
-4 -34 -40 0
5 34 55 0
-5 -34 -55 0
2 11 35 0
-2 -11 -35 0
3 26 35 0
-3 -26 -35 0
4 35 41 0
-4 -35 -41 0
5 35 56 0
-5 -35 -56 0
2 12 36 0
-2 -12 -36 0
3 27 36 0
-3 -27 -36 0
4 36 42 0
-4 -36 -42 0
5 36 57 0
-5 -36 -57 0
2 13 37 0
-2 -13 -37 0
3 28 37 0
-3 -28 -37 0
4 37 43 0
-4 -37 -43 0
5 37 58 0
-5 -37 -58 0
2 14 38 0
-2 -14 -38 0
3 29 38 0
-3 -29 -38 0
4 38 44 0
-4 -38 -44 0
5 38 59 0
-5 -38 -59 0
2 15 39 0
-2 -15 -39 0
3 30 39 0
-3 -30 -39 0
4 39 45 0
-4 -39 -45 0
5 39 60 0
-5 -39 -60 0
1 40 0
-1 -40 0
2 16 40 0
-2 -16 -40 0
3 31 40 0
-3 -31 -40 0
4 40 46 0
-4 -40 -46 0
5 40 61 0
-5 -40 -61 0
1 2 41 0
-1 -2 -41 0
2 17 41 0
-2 -17 -41 0
3 32 41 0
-3 -32 -41 0
4 41 47 0
-4 -41 -47 0
5 41 62 0
-5 -41 -62 0
1 3 42 0
-1 -3 -42 0
2 18 42 0
-2 -18 -42 0
3 33 42 0
-3 -33 -42 0
4 42 48 0
-4 -42 -48 0
5 42 63 0
-5 -42 -63 0
1 4 43 0
-1 -4 -43 0
2 19 43 0
-2 -19 -43 0
3 34 43 0
-3 -34 -43 0
4 43 49 0
-4 -43 -49 0
5 43 64 0
-5 -43 -64 0
1 5 44 0
-1 -5 -44 0
2 20 44 0
-2 -20 -44 0
3 35 44 0
-3 -35 -44 0
4 44 50 0
-4 -44 -50 0
1 6 45 0
-1 -6 -45 0
2 21 45 0
-2 -21 -45 0
3 36 45 0
-3 -36 -45 0
4 45 51 0
-4 -45 -51 0
1 7 46 0
-1 -7 -46 0
2 22 46 0
-2 -22 -46 0
3 37 46 0
-3 -37 -46 0
4 46 52 0
-4 -46 -52 0
1 8 47 0
-1 -8 -47 0
2 23 47 0
-2 -23 -47 0
3 38 47 0
-3 -38 -47 0
4 47 53 0
-4 -47 -53 0
1 9 48 0
-1 -9 -48 0
2 24 48 0
-2 -24 -48 0
3 39 48 0
-3 -39 -48 0
4 48 54 0
-4 -48 -54 0
1 10 49 0
-1 -10 -49 0
2 25 49 0
-2 -25 -49 0
3 40 49 0
-3 -40 -49 0
4 49 55 0
-4 -49 -55 0
1 11 50 0
-1 -11 -50 0
2 26 50 0
-2 -26 -50 0
3 41 50 0
-3 -41 -50 0
4 50 56 0
-4 -50 -56 0
1 12 51 0
-1 -12 -51 0
2 27 51 0
-2 -27 -51 0
3 42 51 0
-3 -42 -51 0
4 51 57 0
-4 -51 -57 0
1 13 52 0
-1 -13 -52 0
2 28 52 0
-2 -28 -52 0
3 43 52 0
-3 -43 -52 0
4 52 58 0
-4 -52 -58 0
1 14 53 0
-1 -14 -53 0
2 29 53 0
-2 -29 -53 0
3 44 53 0
-3 -44 -53 0
4 53 59 0
-4 -53 -59 0
1 15 54 0
-1 -15 -54 0
2 30 54 0
-2 -30 -54 0
3 45 54 0
-3 -45 -54 0
4 54 60 0
-4 -54 -60 0
1 16 55 0
-1 -16 -55 0
2 31 55 0
-2 -31 -55 0
3 46 55 0
-3 -46 -55 0
4 55 61 0
-4 -55 -61 0
1 17 56 0
-1 -17 -56 0
2 32 56 0
-2 -32 -56 0
3 47 56 0
-3 -47 -56 0
4 56 62 0
-4 -56 -62 0
1 18 57 0
-1 -18 -57 0
2 33 57 0
-2 -33 -57 0
3 48 57 0
-3 -48 -57 0
4 57 63 0
-4 -57 -63 0
1 19 58 0
-1 -19 -58 0
2 34 58 0
-2 -34 -58 0
3 49 58 0
-3 -49 -58 0
4 58 64 0
-4 -58 -64 0
1 20 59 0
-1 -20 -59 0
2 35 59 0
-2 -35 -59 0
3 50 59 0
-3 -50 -59 0
1 21 60 0
-1 -21 -60 0
2 36 60 0
-2 -36 -60 0
3 51 60 0
-3 -51 -60 0
1 22 61 0
-1 -22 -61 0
2 37 61 0
-2 -37 -61 0
3 52 61 0
-3 -52 -61 0
1 23 62 0
-1 -23 -62 0
2 38 62 0
-2 -38 -62 0
3 53 62 0
-3 -53 -62 0
1 24 63 0
-1 -24 -63 0
2 39 63 0
-2 -39 -63 0
3 54 63 0
-3 -54 -63 0
1 25 64 0
-1 -25 -64 0
2 40 64 0
-2 -40 -64 0
3 55 64 0
-3 -55 -64 0
