certificates/rado_a15_c54_N64.drat
-58 -64 0
-3 -64 0
-7 -64 0
d -13 -7 -64 0
-64 0
-7 0
58 0
13 0
-4 0
1 0
10 0
55 0
-40 0
-19 0
-52 0
-49 0
-3 0
-16 0
2 0
6 0
34 0
46 0
31 0
0
